4 92 
28 26 
5 21 
11 3 
96 71 
92 71 
76 1 
14 93 
80 14 
25 72 
5 99 
5 26 
83 99 
37 60 
88 42 
80 92 
35 8 
70 92 
82 81 
95 30 
5 39 
2 33 
92 16 
78 24 
82 4 
48 39 
55 53 
65 39 
5 2 
99 93 
97 31 
86 84 
92 8 
76 26 
42 23 
56 47 
15 58 
80 7 
26 59 
32 61 
15 80 
0 70 
86 66 
9 91 
20 60 
84 17 
92 22 
1 36 
83 29 
62 25 
